<instance format="XCSP3" type="CSP">
  <variables>
    <var id="x0"> 11 14 16 </var>
    <var id="x1"> 5 13 16 </var>
    <var id="x2"> 6 11 13 16 </var>
    <var id="x3"> 5 13 16 </var>
    <var id="x4"> 3 6 11 </var>
    <var id="x5"> 3 16 </var>
    <var id="x6"> 6 11 14 16 </var>
    <var id="x7"> 1..3 11 15 16 </var>
    <var id="x8"> 4 10 11 16 </var>
    <var id="x9"> 3 4 10 16 </var>
    <var id="x10"> 1 2 11 15 </var>
    <var id="x11"> 1 2 4 10 11 15 </var>
    <var id="x12"> 1 4 11 </var>
    <var id="x13"> 3 10 11 15 </var>
    <var id="x14"> 2 10 11 </var>
    <var id="x15"> 1 2 8 11 </var>
    <var id="x16"> 1 3 7 10 13 </var>
    <var id="x17"> 1 10 13 </var>
    <var id="x18"> 1 3 7 8 </var>
    <var id="x19"> 1 2 10 11 </var>
    <var id="x20"> 3 11 </var>
    <var id="x21"> 3 8 10 11 </var>
    <var id="x22"> 1 8 10 11 </var>
    <var id="x23"> 0 1 15 </var>
    <var id="x24"> 1 5 6 11 15 </var>
    <var id="x25"> 0 5 16 </var>
    <var id="x26"> 1 6 11 15 </var>
    <var id="x27"> 1 6 11 15 </var>
    <var id="x28"> 0 5 6 11 16 </var>
    <var id="x29"> 1 6 11 14 16 </var>
    <var id="x30"> 11 14 </var>
    <var id="x31"> 1 8 16 </var>
    <var id="x32"> 1 6 15 </var>
    <var id="x33"> 6 9 10 16 </var>
    <var id="x34"> 9 10 16 </var>
    <var id="x35"> 1 6 10 15 17 </var>
    <var id="x36"> 6 9 </var>
    <var id="x37"> 1 6 8 10 16 17 </var>
    <var id="x38"> 8..10 17 </var>
    <var id="x39"> 7 13 15 </var>
    <var id="x40"> 7 9 11 13 16 </var>
    <var id="x41"> 7 9 15 16 </var>
    <var id="x42"> 2 11 13 15 17 </var>
    <var id="x43"> 2 11 15 17 </var>
    <var id="x44"> 11 13 </var>
    <var id="x45"> 11 15 17 </var>
    <var id="x46"> 7 11 16 </var>
    <var id="x47"> 1 3 6 11 </var>
    <var id="x48"> 1..3 11 17 </var>
    <var id="x49"> 1 3 6 11 17 </var>
    <var id="x50"> 1 3 </var>
    <var id="x51"> 1 2 6 11 17 </var>
    <var id="x52"> 1 6 11 12 </var>
    <var id="x53"> 3 6 11 12 14 </var>
    <var id="x54"> 1 6 11 14 17 </var>
    <var id="x55"> 13 15 </var>
    <var id="x56"> 9 10 13 15 17 </var>
    <var id="x57"> 0 4 9 10 </var>
    <var id="x58"> 8 9 15 </var>
    <var id="x59"> 8 13 15 17 </var>
    <var id="x60"> 0 4 9 </var>
    <var id="x61"> 8 10 15 17 </var>
    <var id="x62"> 8 10 17 </var>
    <var id="x63"> 5 9 10 16 </var>
    <var id="x64"> 5 9 10 16 </var>
    <var id="x65"> 0 9 12 </var>
    <var id="x66"> 8 10 12 </var>
    <var id="x67"> 0 5 8 12 16 </var>
    <var id="x68"> 8 10 16 </var>
    <var id="x69"> 8..10 </var>
    <var id="x70"> 1 5 7 9 13 </var>
    <var id="x71"> 1 3 7 12 13 </var>
    <var id="x72"> 1..3 </var>
    <var id="x73"> 3 5 7 9 </var>
    <var id="x74"> 1 3 </var>
    <var id="x75"> 1 2 13 </var>
    <var id="x76"> 5 7 12 </var>
    <var id="x77"> 2 9 13 </var>
    <var id="x78"> 0 1 7 10 12 15 </var>
    <var id="x79"> 1 7 15 </var>
    <var id="x80"> 1 8 15 17 </var>
    <var id="x81"> 1 10 15 17 </var>
    <var id="x82"> 0 1 12 </var>
    <var id="x83"> 8 10 12 15 17 </var>
    <var id="x84"> 0 7 8 12 </var>
    <var id="x85"> 8 10 17 </var>
    <var id="x86"> 1 9 10 15 </var>
    <var id="x87"> 1 10 12 15 </var>
    <var id="x88"> 1 11 15 17 </var>
    <var id="x89"> 1 9 10 15 17 </var>
    <var id="x90"> 1 6 11 15 17 </var>
    <var id="x91"> 1 6 11 12 </var>
    <var id="x92"> 6 9 11 12 </var>
    <var id="x93"> 6 11 12 </var>
    <var id="x94"> 6 7 10 11 </var>
    <var id="x95"> 1 3 6 10 11 </var>
    <var id="x96"> 1 5 10 11 </var>
    <var id="x97"> 1 5 6 11 </var>
    <var id="x98"> 3 6 11 14 </var>
    <var id="x99"> 3 6 10 11 </var>
    <var id="x100"> 5..7 11 </var>
    <var id="x101"> 1 6 10 11 14 </var>
    <var id="x102"> 7 9 15 16 </var>
    <var id="x103"> 0 3 7 15 </var>
    <var id="x104"> 3 7 11 15 </var>
    <var id="x105"> 3 8 11 15 16 </var>
    <var id="x106"> 7 9 11 16 </var>
    <var id="x107"> 3 7..9 15 16 </var>
    <var id="x108"> 0 11 </var>
    <var id="x109"> 8 9 11 </var>
    <var id="x110"> 1 11 16 </var>
    <var id="x111"> 1 13 15 16 </var>
    <var id="x112"> 4 16 </var>
    <var id="x113"> 1 6 11 13 15 17 </var>
    <var id="x114"> 1 4 11 15 17 </var>
    <var id="x115"> 1 4 6 11 13 </var>
    <var id="x116"> 4 6 11 </var>
    <var id="x117"> 11 13 17 </var>
    <var id="x118"> 1 8 11 </var>
    <var id="x119"> 1 3 10 13 </var>
    <var id="x120"> 1 3 8 11 </var>
    <var id="x121"> 6 10 11 13 </var>
    <var id="x122"> 1 5 10 13 </var>
    <var id="x123"> 3 5 10 </var>
    <var as="x95" id="x124"/>
    <var id="x125"> 1 5 10 11 </var>
    <var id="x126"> 0 11 16 </var>
    <var id="x127"> 5 10 15 16 </var>
    <var id="x128"> 5 11 15 </var>
    <var as="x8" id="x129"/>
    <var id="x130"> 5 10 15..17 </var>
    <var id="x131"> 15 16 </var>
    <var id="x132"> 4 5 10 11 15 17 </var>
    <var id="x133"> 0 5 11 16 </var>
    <var id="x134"> 1 8 11 </var>
    <var id="x135"> 1 7 13 </var>
    <var id="x136"> 1 6 7 11 13 </var>
    <var id="x137"> 1 8 11 </var>
    <var id="x138"> 4 7 </var>
    <var id="x139"> 1 4 11 </var>
    <var id="x140"> 6 8 11 </var>
  </variables>
  <constraints>
    <group>
      <allDifferent> %... </allDifferent>
      <args> x0 x1 x2 x3 x4 x5 x6 </args>
      <args> x7 x8 x9 x10 x11 x12 x13 x14 </args>
      <args> x15 x16 x17 x18 x19 x20 x21 x22 </args>
      <args> x23 x24 x25 x26 x27 x28 x29 x30 </args>
      <args> x31 x32 x33 x34 x35 x36 x37 x38 </args>
      <args> x39 x40 x41 x42 x43 x44 x45 x46 </args>
      <args> x47 x48 x49 x50 x51 x52 x53 x54 </args>
      <args> x55 x56 x57 x58 x59 x60 x61 x62 </args>
      <args> x63 x64 x65 x66 x67 x68 x69 </args>
      <args> x70 x71 x72 x73 x74 x75 x76 x77 </args>
      <args> x78 x79 x80 x81 x82 x83 x84 x85 </args>
      <args> x86 x87 x88 x89 x90 x91 x92 x93 </args>
      <args> x94 x95 x96 x97 x98 x99 x100 x101 </args>
      <args> x102 x103 x104 x105 x106 x107 x108 x109 </args>
      <args> x110 x111 x112 x113 x114 x115 x116 x117 </args>
      <args> x118 x119 x120 x121 x122 x123 x124 x125 </args>
      <args> x126 x127 x128 x129 x130 x131 x132 x133 </args>
      <args> x134 x135 x136 x137 x138 x139 x140 </args>
      <args> x0 x15 x31 x110 x118 x126 x134 </args>
      <args> x1 x63 x70 x86 x102 x111 x127 x135 </args>
      <args> x16 x23 x39 x71 x78 x87 x103 x119 </args>
      <args> x24 x32 x47 x55 x79 x104 x128 x136 </args>
      <args> x7 x48 x72 x80 x88 x105 x120 x137 </args>
      <args> x2 x8 x33 x40 x94 x106 x121 x129 </args>
      <args> x3 x17 x56 x64 x81 x89 x122 x130 </args>
      <args> x9 x25 x34 x57 x73 x112 x123 x138 </args>
      <args> x4 x26 x35 x49 x74 x95 x124 </args>
      <args> x5 x18 x41 x50 x58 x107 x131 </args>
      <args> x10 x27 x42 x51 x59 x75 x90 x113 </args>
      <args> x11 x19 x43 x96 x114 x125 x132 x139 </args>
      <args> x12 x44 x52 x82 x91 x97 x108 x115 </args>
      <args> x20 x36 x53 x60 x65 x92 x98 x116 </args>
      <args> x13 x21 x45 x61 x66 x83 x99 x140 </args>
      <args> x28 x46 x67 x76 x84 x93 x100 x133 </args>
      <args> x6 x22 x29 x37 x54 x62 x68 x101 </args>
      <args> x14 x30 x38 x69 x77 x85 x109 x117 </args>
    </group>
  </constraints>
</instance>

